synthesiz3/benchmarks/sl/sygus-jmbl_fg_array_sum_2_5.sl
;; From [SyGuS competition]

(set-logic LIA)

(synth-fun fnd_sum ((y1 Int) (y2 Int)) Int)

(declare-var x1 Int)
(declare-var x2 Int)
(constraint (=> (> (+ x1 x2) 5) (= (fnd_sum x1 x2) (+ x1 x2))))
(constraint (=> (<= (+ x1 x2) 5) (= (fnd_sum x1 x2) 0)))

(check-synth)

